10J3M/DAT/10J3MNNL-20.dat
10 3
30.66 30.66
29.3552 29.3552
28.5395 28.5395
30.712 30.712
31.1781 31.1781
24.0303 24.0303
23.5746 23.5746
31.5617 31.5617
30.0206 30.0206
32.1981 32.1981
291.8301