10J3M/SOL/10J3MNNL-20.sol
solution status: optimal solution found
objective value:                              97.2767
x#1#2                                               1 	(obj:0)
x#2#1                               0.719882678367036 	(obj:0)
x#2#3                               0.280117321632964 	(obj:0)
x#3#1                                               1 	(obj:0)
x#4#2                                               1 	(obj:0)
x#5#2                                               1 	(obj:0)
x#6#1                                               1 	(obj:0)
x#7#1                                               1 	(obj:0)
x#8#3                                               1 	(obj:0)
x#9#3                                               1 	(obj:0)
x#10#2                              0.146797481838991 	(obj:0)
x#10#3                              0.853202518161009 	(obj:0)
z                                             97.2767 	(obj:1)
